interface IRobotCommunication {
	in void start();
	in void stop();
	in void emergencyStop();
	out void emergency();
	
	out void requestDiskCounters();
	in void respondDiskCounters();
	
	out void heartbeat();
	in void heartbeat1();
	in void heartbeat2();
	in void heartbeat3();
	in void heartbeat4();
	
	out void tookDisk_out();
	in void tookDisk_in();
	
	out void error_out();
	in void error_in();
	
	out void requestDisksTaken();
	in void respondDisksTaken();
	
	in void reboot();
	in void resumeTaking();
	in void pauseTaking();
	
	out void T010();
	out void T000();
	out void S000();
	out void S010();
	out void S100();
	out void R100();
	out void R101();
	out void R290();
	out void R200();
	
	behaviour {
		enum State { Idle, Running };
		State state = State.Idle;
		
		on respondDiskCounters,
		   respondDisksTaken,
		   error_in,
		   heartbeat1,
		   heartbeat2,
		   heartbeat3,
		   heartbeat4,
		   tookDisk_in,
		   reboot: {}
		
		[state.Idle] {
			on start: state = State.Running;
			on stop: illegal;
			on emergencyStop: {}
		}
		
		on resumeTaking, pauseTaking: {}
		
		[state.Running] {
			on stop, emergencyStop: state = State.Idle;
			
			on optional: {
				T010;
				state = State.Idle;
				emergency;
			}
			
			on optional: {
				requestDiskCounters;
			}
			
			on optional: {
				requestDisksTaken;
			}
			
			on optional: {
				error_out;
			}
			
			on optional: {
				tookDisk_out;
			}
			
			on optional: {
				heartbeat;
			}
			
			// Ad hoc error handling. Too lazy to figure out code in Dezyne.
			on optional: {
				T000;
				error_out;
			}
			on optional: {
				S000;
				error_out;
			}
			on optional: {
				S010;
				error_out;
			}
			on optional: {
				S100;
				error_out;
			}
			on optional: {
				R100;
				error_out;
			}
			on optional: {
				R101;
				error_out;
			}
			on optional: {
				R290;
				error_out;
			}
			on optional: {
				R200;
			}
			
			on resumeTaking, pauseTaking: {}
			
			on start: illegal;
		}
	}
}